Translating instance to solver...

GLPSOL--GLPK LP/MIP Solver 5.0
Parameter(s) specified in the command line:
 --tmlim 28800 --mipgap 0.0 --write /tmp/tmp13f9v6ub.glpk.raw --wglp /tmp/tmptb1u8hiv.glpk.glp
 --cpxlp /tmp/tmpmx8rig1l.pyomo.lp
Reading problem data from '/tmp/tmpmx8rig1l.pyomo.lp'...
/tmp/tmpmx8rig1l.pyomo.lp:29139: warning: lower bound of variable 'x2' redefined
/tmp/tmpmx8rig1l.pyomo.lp:29139: warning: upper bound of variable 'x2' redefined
4616 rows, 3172 columns, 12076 non-zeros
3172 integer variables, 3160 of which are binary
32299 lines were read
Writing problem data to '/tmp/tmptb1u8hiv.glpk.glp'...
22212 lines were written
GLPK Integer Optimizer 5.0
4616 rows, 3172 columns, 12076 non-zeros
3172 integer variables, 3160 of which are binary
Preprocessing...
116 hidden packing inequaliti(es) were detected
476 hidden covering inequaliti(es) were detected
85 constraint coefficient(s) were reduced
2397 rows, 1354 columns, 6471 non-zeros
1354 integer variables, 1343 of which are binary
Scaling...
 A: min|aij| =  1.000e+00  max|aij| =  1.100e+01  ratio =  1.100e+01
GM: min|aij| =  5.491e-01  max|aij| =  1.821e+00  ratio =  3.317e+00
EQ: min|aij| =  3.503e-01  max|aij| =  1.000e+00  ratio =  2.855e+00
2N: min|aij| =  2.500e-01  max|aij| =  1.375e+00  ratio =  5.500e+00
Constructing initial basis...
Size of triangular part is 2397
Solving LP relaxation...
GLPK Simplex Optimizer 5.0
2397 rows, 1354 columns, 6471 non-zeros
      0: obj =   0.000000000e+00 inf =   9.825e+01 (101)
Perturbing LP to avoid stalling [200]...
    324: obj =   2.573564002e+00 inf =   3.300e-08 (0) 2
Removing LP perturbation [642]...
*   642: obj =   1.030091859e+00 inf =   2.878e-15 (0) 2
OPTIMAL LP SOLUTION FOUND
Integer optimization begins...
Long-step dual simplex will be used
+   642: mip =     not found yet >=              -inf        (1; 0)
+  1629: >>>>>   2.735346000e+00 >=   1.061782000e+00  61.2% (19; 1)
+  3266: >>>>>   1.511782000e+00 >=   1.061782000e+00  29.8% (133; 8)
+ 14418: mip =   1.511782000e+00 >=   1.367673000e+00   9.5% (158; 1469)
+ 17400: mip =   1.511782000e+00 >=     tree is empty   0.0% (0; 2549)
INTEGER OPTIMAL SOLUTION FOUND
Time used:   7.3 secs
Memory used: 7.2 Mb (7563070 bytes)
Writing MIP solution to '/tmp/tmp13f9v6ub.glpk.raw'...
7797 lines were written

Time in solver (for this epsilon): 7.331113815307617 s
Elapsed time (for this epsilon): 7.4406418800354 s


Total elapsed time since execution of first epsilon: 14.888791561126709 s

Results:

E = 1.511782 mA
C = 57.0 points
C ~= 22.8 km^2

Minimum Epsilon for this instance = 9
Maximum Epsilon for this instance = 96

Current Epsilon = 54


Instance Epsilon Preprocessing Time: 0.0010874271392822266 s


Updated solution vectors:
sol_E = [-0.611782,-0.9176730000000001,-1.061782,-1.061782,-1.061782,-1.511782]
sol_C = [12.0,19.0,35.0,40.0,49.0,57.0]
sol_eps = [9,18,27,36,45,54]
sol_gap = [0.0,0.0,0.0,0.0,0.0,0.0]
